unsat
(:max-memory         18.42
 :memory             18.32
 :nlsat-arith-var    3
 :nlsat-atoms        11
 :nlsat-bool-var     1
 :nlsat-clauses      7
 :nlsat-conflicts    5
 :nlsat-propagations 19
 :nlsat-stages       6
 :num-allocs         50782
 :rlimit-count       1296
 :time               0.00
 :total-time         0.01)
